p tw 57 6841 2 
1 3 
1 4 
1 5 
1 6 
1 7 
1 8 
1 9 
1 10 
1 11 
1 12 
1 13 
1 14 
1 15 
1 16 
1 17 
1 22 
1 25 
1 37 
1 41 
1 44 
1 45 
1 46 
1 47 
2 3 
2 4 
2 5 
2 6 
2 7 
2 8 
2 9 
2 10 
2 12 
2 18 
2 19 
2 20 
2 21 
2 22 
2 23 
2 24 
2 27 
2 36 
2 44 
2 48 
2 49 
2 50 
2 51 
3 4 
3 5 
3 6 
3 7 
3 8 
3 9 
3 11 
3 15 
3 18 
3 20 
3 25 
3 26 
3 27 
3 28 
3 29 
3 30 
3 34 
3 43 
3 46 
3 48 
3 53 
3 54 
4 5 
4 6 
4 7 
4 8 
4 9 
4 12 
4 16 
4 19 
4 21 
4 25 
4 30 
4 31 
4 32 
4 33 
4 34 
4 35 
4 40 
4 46 
4 50 
4 52 
4 57 
5 6 
5 7 
5 8 
5 9 
5 11 
5 14 
5 20 
5 23 
5 28 
5 31 
5 33 
5 36 
5 37 
5 38 
5 39 
5 40 
5 42 
5 45 
5 48 
5 52 
6 7 
6 8 
6 9 
6 13 
6 15 
6 21 
6 22 
6 26 
6 27 
6 32 
6 33 
6 36 
6 39 
6 41 
6 42 
6 43 
6 55 
6 56 
6 57 
7 8 
7 9 
7 10 
7 16 
7 23 
7 26 
7 29 
7 34 
7 35 
7 38 
7 40 
7 43 
7 45 
7 47 
7 49 
7 51 
7 55 
7 56 
8 9 
8 13 
8 17 
8 19 
8 24 
8 28 
8 29 
8 31 
8 38 
8 41 
8 44 
8 50 
8 52 
8 53 
8 54 
8 55 
8 56 
9 14 
9 17 
9 18 
9 24 
9 30 
9 32 
9 35 
9 37 
9 39 
9 42 
9 47 
9 49 
9 51 
9 53 
9 54 
9 57 
10 11 
10 12 
10 13 
10 14 
10 15 
10 16 
10 17 
10 18 
10 19 
10 20 
10 21 
10 22 
10 23 
10 24 
10 29 
10 35 
10 40 
10 43 
10 45 
10 51 
10 56 
11 12 
11 13 
11 14 
11 15 
11 16 
11 17 
11 18 
11 20 
11 25 
11 26 
11 27 
11 28 
11 29 
11 30 
11 31 
11 36 
11 37 
11 38 
11 39 
11 40 
12 13 
12 14 
12 15 
12 16 
12 17 
12 19 
12 25 
12 27 
12 31 
12 32 
12 33 
12 34 
12 35 
12 36 
12 44 
12 48 
12 49 
12 50 
12 51 
13 14 
13 15 
13 16 
13 17 
13 21 
13 24 
13 26 
13 29 
13 31 
13 32 
13 36 
13 41 
13 42 
13 43 
13 44 
13 52 
13 53 
13 55 
14 15 
14 16 
14 17 
14 23 
14 24 
14 28 
14 30 
14 32 
14 33 
14 39 
14 42 
14 45 
14 47 
14 48 
14 51 
14 52 
14 54 
15 16 
15 17 
15 20 
15 22 
15 27 
15 33 
15 34 
15 39 
15 43 
15 46 
15 48 
15 53 
15 54 
15 55 
15 56 
15 57 
16 17 
16 21 
16 23 
16 26 
16 30 
16 34 
16 38 
16 40 
16 46 
16 47 
16 49 
16 50 
16 52 
16 55 
16 57 
17 18 
17 19 
17 28 
17 35 
17 37 
17 38 
17 41 
17 42 
17 49 
17 50 
17 53 
17 54 
17 56 
17 57 
18 19 
18 20 
18 21 
18 22 
18 23 
18 24 
18 25 
18 26 
18 27 
18 28 
18 29 
18 30 
18 35 
18 37 
18 42 
18 49 
18 53 
18 57 
19 20 
19 21 
19 22 
19 23 
19 24 
19 25 
19 28 
19 31 
19 32 
19 33 
19 34 
19 35 
19 38 
19 41 
19 50 
19 54 
19 56 
20 21 
20 22 
20 23 
20 24 
20 31 
20 34 
20 36 
20 37 
20 38 
20 39 
20 40 
20 43 
20 46 
20 48 
20 53 
20 54 
21 22 
21 23 
21 24 
21 26 
21 30 
21 32 
21 36 
21 40 
21 41 
21 42 
21 43 
21 46 
21 50 
21 52 
21 57 
22 23 
22 24 
22 25 
22 27 
22 33 
22 37 
22 39 
22 41 
22 44 
22 45 
22 46 
22 47 
22 55 
22 56 
22 57 
23 24 
23 26 
23 28 
23 33 
23 34 
23 38 
23 42 
23 45 
23 47 
23 48 
23 49 
23 52 
23 55 
24 29 
24 30 
24 31 
24 32 
24 39 
24 44 
24 47 
24 51 
24 52 
24 53 
24 54 
24 55 
25 26 
25 27 
25 28 
25 29 
25 30 
25 31 
25 32 
25 33 
25 34 
25 35 
25 37 
25 41 
25 44 
25 45 
25 46 
25 47 
26 27 
26 28 
26 29 
26 30 
26 32 
26 34 
26 36 
26 38 
26 41 
26 42 
26 43 
26 47 
26 49 
26 55 
27 28 
27 29 
27 30 
27 33 
27 36 
27 39 
27 44 
27 48 
27 49 
27 50 
27 51 
27 55 
27 56 
27 57 
28 29 
28 30 
28 33 
28 38 
28 41 
28 42 
28 45 
28 48 
28 50 
28 52 
28 54 
28 56 
29 30 
29 31 
29 35 
29 40 
29 43 
29 44 
29 45 
29 51 
29 52 
29 53 
29 55 
29 56 
30 32 
30 39 
30 40 
30 46 
30 47 
30 50 
30 51 
30 52 
30 54 
30 57 
31 32 
31 33 
31 34 
31 35 
31 36 
31 37 
31 38 
31 39 
31 40 
31 44 
31 52 
31 53 
31 55 
32 33 
32 34 
32 35 
32 36 
32 39 
32 41 
32 42 
32 43 
32 47 
32 51 
32 54 
33 34 
33 35 
33 39 
33 42 
33 45 
33 48 
33 52 
33 55 
33 56 
33 57 
34 35 
34 38 
34 43 
34 46 
34 47 
34 48 
34 49 
34 53 
34 54 
34 55 
35 37 
35 40 
35 42 
35 43 
35 45 
35 49 
35 51 
35 53 
35 56 
35 57 
36 37 
36 38 
36 39 
36 40 
36 41 
36 42 
36 43 
36 44 
36 48 
36 49 
36 50 
36 51 
37 38 
37 39 
37 40 
37 41 
37 42 
37 44 
37 45 
37 46 
37 47 
37 49 
37 53 
37 57 
38 39 
38 40 
38 41 
38 47 
38 49 
38 50 
38 54 
38 55 
38 56 
39 40 
39 47 
39 51 
39 54 
39 55 
39 56 
39 57 
40 43 
40 45 
40 46 
40 50 
40 51 
40 52 
40 56 
40 57 
41 42 
41 43 
41 44 
41 45 
41 46 
41 47 
41 50 
41 54 
41 56 
42 43 
42 45 
42 48 
42 49 
42 52 
42 53 
42 57 
43 45 
43 46 
43 48 
43 51 
43 53 
43 54 
43 56 
44 45 
44 46 
44 47 
44 48 
44 49 
44 50 
44 51 
44 52 
44 53 
44 55 
45 46 
45 47 
45 48 
45 51 
45 52 
45 56 
46 47 
46 48 
46 50 
46 52 
46 53 
46 54 
46 57 
47 49 
47 51 
47 54 
47 55 
48 49 
48 50 
48 51 
48 52 
48 53 
48 54 
49 50 
49 51 
49 53 
49 55 
49 57 
50 51 
50 52 
50 54 
50 56 
50 57 
51 54 
51 56 
52 53 
52 55 
52 57 
53 54 
53 55 
53 57 
54 56 
55 56 
55 57 
56 57 
